50
100
94
92
89
88
88
87
86
84
82
82
81
79
77
77
77
76
73
72
70
69
68
68
65
63
63
61
59
58
57
55
54
52
52
52
51
48
46
43
40
38
37
37
36
35
35
35
34
34
34
33
